RT is False
Default write of storage_offers_DA.csv just to have a file (but constraint should be inactive)
Reading model...
...model read.
creating competitive generators file...
...competitive generators recorded.
Loading data...
.. day-ahead data with real-time VRE data read.
Compiling instance...
...instance created.
Creating Offer Mitigation (model will solve as dispatch if TRUE)...
Solving...

Welcome to IBM(R) ILOG(R) CPLEX(R) Interactive Optimizer 12.8.0.0
  with Simplex, Mixed Integer & Barrier Optimizers
5725-A06 5725-A29 5724-Y48 5724-Y49 5724-Y54 5724-Y55 5655-Y21
Copyright IBM Corp. 1988, 2017.  All Rights Reserved.

Type 'help' for a list of available commands.
Type 'help' followed by a command name for more
information on commands.

CPLEX> Logfile 'cplex.log' closed.
Logfile 'C:\Users\llavi\Desktop\test919\logs\tmpz64wt4a2.cplex.log' open.
CPLEX> New value for parallel optimization mode: -1
CPLEX> New value for mixed integer optimality gap tolerance: 0.01
CPLEX> New value for integrality tolerance: 1e-09
CPLEX> New value for feasibility tolerance: 0.01
CPLEX> New value for deterministic time limit in ticks: 75000
CPLEX> Problem 'C:\Users\llavi\Desktop\test919\logs\tmpdkd_kqs4.pyomo.lp' read.
Read time = 0.13 sec. (3.03 ticks)
CPLEX> Problem name         : C:\Users\llavi\Desktop\test919\logs\tmpdkd_kqs4.pyomo.lp
Objective sense      : Minimize
Variables            :   26465  [Nneg: 1,  Box: 22000,  Free: 4464]
Objective nonzeros   :    2496
Linear constraints   :   27515  [Less: 14006,  Greater: 4416,  Equal: 9093]
  Nonzeros           :   89171
  RHS nonzeros       :   12271

Variables            : Min LB: -5000.000        Max UB: 1000000.       
Objective nonzeros   : Min   : 15.73158         Max   : 124.0997       
Linear constraints   :
  Nonzeros           : Min   : 0.8500000        Max   : 3000.000       
  RHS nonzeros       : Min   : 0.3833333        Max   : 5000.000       
CPLEX> CPXPARAM_Simplex_Tolerances_Feasibility          0.01
CPXPARAM_Parallel                                -1
CPXPARAM_DetTimeLimit                            75000
CPXPARAM_MIP_Tolerances_MIPGap                   0.01
CPXPARAM_MIP_Tolerances_Integrality              1.0000000000000001e-09
Parallel mode: opportunistic, using up to 4 threads for concurrent optimization.
Tried aggregator 1 time.
LP Presolve eliminated 21401 rows and 15895 columns.
Aggregator did 722 substitutions.
Reduced LP has 5392 rows, 9848 columns, and 31764 nonzeros.
Presolve time = 0.05 sec. (22.46 ticks)

Iteration log . . .
Iteration:     1   Dual objective     =             0.000000
Perturbation started.
Iteration:   101   Dual objective     =             0.000000
Iteration:   359   Dual objective     =             1.352479
Iteration:   630   Dual objective     =             1.976487
Iteration:   950   Dual objective     =             2.154846
Iteration:  1143   Dual objective     =             2.273723
Iteration:  1492   Dual objective     =             2.331842
Iteration:  1794   Dual objective     =             2.366155
Iteration:  2094   Dual objective     =          6880.498178
Iteration:  2386   Dual objective     =         27982.490248
Iteration:  2706   Dual objective     =         75253.472114
Iteration:  3044   Dual objective     =        103250.709595
Iteration:  3361   Dual objective     =        106409.794213
Iteration:  3709   Dual objective     =        162268.299254
Iteration:  4137   Dual objective     =        183949.295341
Removing perturbation.

Dual simplex solved model.


Dual simplex - Optimal:  Objective =  2.0092458139e+05
Solution time =    0.17 sec.  Iterations = 4603 (0)
Deterministic time = 97.43 ticks  (566.43 ticks/sec)

CPLEX> Solution written to file 'C:\Users\llavi\Desktop\test919\logs\tmp89vi5z6x.cplex.sol'.
CPLEX> Exporting results... 
...storage offer mitigation file created
Converting model to MPEC...
...converted
NOTE: initial MIP solve with only storage competitive to get feasible solution
Solving...

Welcome to IBM(R) ILOG(R) CPLEX(R) Interactive Optimizer 12.8.0.0
  with Simplex, Mixed Integer & Barrier Optimizers
5725-A06 5725-A29 5724-Y48 5724-Y49 5724-Y54 5724-Y55 5655-Y21
Copyright IBM Corp. 1988, 2017.  All Rights Reserved.

Type 'help' for a list of available commands.
Type 'help' followed by a command name for more
information on commands.

CPLEX> Logfile 'cplex.log' closed.
Logfile 'C:\Users\llavi\Desktop\test919\logs\tmpmooydj0v.cplex.log' open.
CPLEX> New value for parallel optimization mode: -1
CPLEX> New value for mixed integer optimality gap tolerance: 0.01
CPLEX> New value for integrality tolerance: 1e-09
CPLEX> New value for feasibility tolerance: 0.01
CPLEX> New value for deterministic time limit in ticks: 75000
CPLEX> Problem 'C:\Users\llavi\Desktop\test919\logs\tmpxp7uki1q.pyomo.lp' read.
Read time = 0.25 sec. (13.96 ticks)
CPLEX> Problem name         : C:\Users\llavi\Desktop\test919\logs\tmpxp7uki1q.pyomo.lp
Objective sense      : Maximize
Variables            :   53805  [Nneg: 1,  Box: 22000,  Free: 4464,
                                 Binary: 27340]
Objective nonzeros   :    9078
Linear constraints   :  123205  [Less: 41346,  Greater: 59096,  Equal: 22763]
  Nonzeros           :  291705
  RHS nonzeros       :   67425

Variables            : Min LB: -5000.000        Max UB: 1000000.       
Objective nonzeros   : Min   : 0.3833333        Max   : 2500.000       
Linear constraints   :
  Nonzeros           : Min   : 0.3833333        Max   : 1000000.       
  RHS nonzeros       : Min   : 0.3833333        Max   : 1000000.       
CPLEX> CPXPARAM_Simplex_Tolerances_Feasibility          0.01
CPXPARAM_Parallel                                -1
CPXPARAM_DetTimeLimit                            75000
CPXPARAM_MIP_Tolerances_MIPGap                   0.01
CPXPARAM_MIP_Tolerances_Integrality              1.0000000000000001e-09
Tried aggregator 3 times.
MIP Presolve eliminated 88647 rows and 18995 columns.
MIP Presolve added 3355 rows and 0 columns.
MIP Presolve modified 23905 coefficients.
Aggregator did 12955 substitutions.
Reduced MIP has 24958 rows, 21299 columns, and 71145 nonzeros.
Reduced MIP has 8426 binaries, 0 generals, 0 SOSs, and 0 indicators.
Presolve time = 0.25 sec. (165.19 ticks)
Probing fixed 412 vars, tightened 2916 bounds.
Probing time = 3.20 sec. (908.09 ticks)
Tried aggregator 2 times.
MIP Presolve eliminated 935 rows and 827 columns.
MIP Presolve modified 2235 coefficients.
Aggregator did 41 substitutions.
Reduced MIP has 23982 rows, 20431 columns, and 68310 nonzeros.
Reduced MIP has 8014 binaries, 0 generals, 0 SOSs, and 0 indicators.
Presolve time = 0.14 sec. (55.91 ticks)
Probing time = 0.08 sec. (15.21 ticks)
Clique table members: 6491.
MIP emphasis: balance optimality and feasibility.
MIP search method: dynamic search.
Parallel mode: opportunistic, using up to 4 threads.
Root relaxation solution time = 0.56 sec. (529.08 ticks)

        Nodes                                         Cuts/
   Node  Left     Objective  IInf  Best Integer    Best Bound    ItCnt     Gap

      0     0        0.0000   687                      0.0000     4423         
*     0+    0                            0.0000        0.0000             0.00%
      0     0        cutoff              0.0000        0.0000     4423    0.00%
Elapsed time = 5.39 sec. (2063.79 ticks, tree = 0.01 MB, solutions = 1)

Root node processing (before b&c):
  Real time             =    5.41 sec. (2066.06 ticks)
Parallel b&c, 4 threads:
  Real time             =    0.00 sec. (0.00 ticks)
  Sync time (average)   =    0.00 sec.
  Wait time (average)   =    0.00 sec.
                          ------------
Total (root+branch&cut) =    5.41 sec. (2066.06 ticks)

Solution pool: 1 solution saved.

MIP - Integer optimal solution:  Objective =  4.1763996705e-09
Solution time =    5.41 sec.  Iterations = 4423  Nodes = 0
Deterministic time = 2066.21 ticks  (382.21 ticks/sec)

CPLEX> Incumbent solution written to file 'C:\Users\llavi\Desktop\test919\logs\tmpzg_50q21.cplex.sol'.
CPLEX> NOTE: no warmstart specified for MIP iteration, default behavior is true
NOTE: resolving with all competitive generators using storage-only solution to warmstart
Solving...

Welcome to IBM(R) ILOG(R) CPLEX(R) Interactive Optimizer 12.8.0.0
  with Simplex, Mixed Integer & Barrier Optimizers
5725-A06 5725-A29 5724-Y48 5724-Y49 5724-Y54 5724-Y55 5655-Y21
Copyright IBM Corp. 1988, 2017.  All Rights Reserved.

Type 'help' for a list of available commands.
Type 'help' followed by a command name for more
information on commands.

CPLEX> Logfile 'cplex.log' closed.
Logfile 'C:\Users\llavi\Desktop\test919\logs\tmpw1f6_n6l.cplex.log' open.
CPLEX> New value for parallel optimization mode: -1
CPLEX> New value for mixed integer optimality gap tolerance: 0.01
CPLEX> New value for integrality tolerance: 1e-09
CPLEX> New value for feasibility tolerance: 0.01
CPLEX> New value for deterministic time limit in ticks: 75000
CPLEX> Problem 'C:\Users\llavi\Desktop\test919\logs\tmpny4n44_4.pyomo.lp' read.
Read time = 0.23 sec. (13.98 ticks)
CPLEX> MIP start file 'C:\Users\llavi\Desktop\test919\logs\tmp7818on2o.cplex.mst' read.
CPLEX> Problem name         : C:\Users\llavi\Desktop\test919\logs\tmpny4n44_4.pyomo.lp
Objective sense      : Maximize
Variables            :   54525  [Nneg: 1,  Box: 22720,  Free: 4464,
                                 Binary: 27340]
Objective nonzeros   :    9774
Linear constraints   :  123205  [Less: 41346,  Greater: 59096,  Equal: 22763]
  Nonzeros           :  291705
  RHS nonzeros       :   67425

Variables            : Min LB: -5000.000        Max UB: 1000000.       
Objective nonzeros   : Min   : 0.3833333        Max   : 2500.000       
Linear constraints   :
  Nonzeros           : Min   : 0.3833333        Max   : 1000000.       
  RHS nonzeros       : Min   : 0.3833333        Max   : 1000000.       
CPLEX> CPXPARAM_Simplex_Tolerances_Feasibility          0.01
CPXPARAM_Parallel                                -1
CPXPARAM_DetTimeLimit                            75000
CPXPARAM_MIP_Tolerances_MIPGap                   0.01
CPXPARAM_MIP_Tolerances_Integrality              1.0000000000000001e-09
Warning:  No solution found from 1 MIP starts.
Retaining values of one MIP start for possible repair.
Tried aggregator 3 times.
MIP Presolve eliminated 88647 rows and 19715 columns.
MIP Presolve added 3355 rows and 0 columns.
MIP Presolve modified 23905 coefficients.
Aggregator did 12955 substitutions.
Reduced MIP has 24958 rows, 21299 columns, and 71145 nonzeros.
Reduced MIP has 8426 binaries, 0 generals, 0 SOSs, and 0 indicators.
Presolve time = 0.27 sec. (165.54 ticks)
Probing fixed 412 vars, tightened 2916 bounds.
Probing time = 3.19 sec. (908.09 ticks)
Tried aggregator 2 times.
MIP Presolve eliminated 935 rows and 827 columns.
MIP Presolve modified 2235 coefficients.
Aggregator did 41 substitutions.
Reduced MIP has 23982 rows, 20431 columns, and 68310 nonzeros.
Reduced MIP has 8014 binaries, 0 generals, 0 SOSs, and 0 indicators.
Presolve time = 0.14 sec. (55.91 ticks)
Probing time = 0.06 sec. (15.21 ticks)
Clique table members: 6491.
MIP emphasis: balance optimality and feasibility.
MIP search method: dynamic search.
Parallel mode: opportunistic, using up to 4 threads.
Root relaxation solution time = 0.50 sec. (232.41 ticks)

        Nodes                                         Cuts/
   Node  Left     Objective  IInf  Best Integer    Best Bound    ItCnt     Gap

      0     0   174923.5846  1897                 174923.5846     4200         
      0     0   170513.9465   735                   Cuts: 862     4680         
      0     0   169467.0447   571                   Cuts: 396     4858         
      0     0   169197.0181   545                   Cuts: 189     4974         
      0     0   169167.6570   506                   Cuts: 116     5038         
      0     0   169165.5146   483                    Cuts: 90     5087         
      0     0   169165.0868   464                    Cuts: 47     5104         
      0     0   169165.0800   458                    Cuts: 39     5115         
      0     0   169165.0800   449                    Cuts: 30     5122         
      0     0   169165.0800   450                    Cuts: 27     5130         
Repair heuristic found nothing.
      0     2   169165.0800   450                 164984.9414     5130         
Elapsed time = 29.13 sec. (11350.31 ticks, tree = 0.03 MB, solutions = 0)
     38    27    infeasible                       164984.9414     6877         
     91    34    69871.1673   305                 164984.9414     8616         
    159    62    56407.5643   265                 164984.9414    10029         
    228   126    50697.2645   260                 164984.9414    10831         
    284   181    33941.4665   272                 164984.9414    11624         
    362   225    20541.1979   223                 164984.9414    12098         
    434   281    18933.4318   234                 164984.9414    12782         
    508   380    14927.7969   193                 164984.9414    13308         
    596   392    17510.1988   226                 164984.9414    13550         
   1159   873    18027.5155   172                 164984.9414    14947         
Elapsed time = 35.36 sec. (14478.87 ticks, tree = 8.50 MB, solutions = 0)
   1414  1270    infeasible                       164984.9414    15486         
   1537  1368    33831.7373   238                 164984.9414    17992         
   1742  1432    20305.8067   238                 164984.9414    19453         
   2007  1513    46394.7158   312                 162050.4040    26241         
   2232  1747    10544.1302   229                 162050.4040    33007         
   2494  1749    28496.2195   241                 162050.4040    33911         
   2553  2034    54542.0442   281                  63955.7909    45742         
   2713    72   -15836.6787   222                  57341.1790    47380         
   2889   320    43929.7023   254                  57341.1790    51031         
   3053   436   -36582.0479   150                  57341.1790    52653         
Elapsed time = 83.28 sec. (32747.71 ticks, tree = 5.17 MB, solutions = 0)
   3124   458   -36692.2920   147                  57341.1790    53029         
   3332   565   -49040.6131   167                  54540.5833    54466         
   3579   888    13795.4075   136                  54540.5833    57740         
   3840  1096    26704.4966   151                  54540.5833    58769         
   4183  1445    14320.0404    21                  54540.5833    59849         
*  4291  1444      integral     0    14319.9954    54540.5833    59851  280.87%
   4461   666    22130.7905   144    14319.9954    43857.5082    60716  206.27%
   4736   672    22341.9529   150    20301.9346    43636.3068    63367  114.94%
   5071   850    23519.6594   155    20301.9346    43625.6476    64506  114.88%
   5146  1151        cutoff          20301.9346    43577.7136    74650  114.65%
   5232    49    33406.5892   123    20301.9346    42846.3847    76314  111.05%
Elapsed time = 121.91 sec. (48391.80 ticks, tree = 0.81 MB, solutions = 3)
   5410   214    33741.2490   109    20301.9346    42413.7901    78583  108.92%
   5590   270    20468.4310    45    20301.9346    42296.3906    79291  108.34%
   5788   417    28030.9966    72    20301.9346    42200.8141    81187  107.87%
   6002   462    24003.3671    55    20301.9346    42200.8141    81609  107.87%
   6177   772    27764.3369    51    20301.9346    41661.7328    84795  105.21%
   6338   878    27764.3369    40    20301.9346    41661.7328    85669  105.21%
   6550   953    22485.2969     9    20301.9346    41652.9241    86964  105.17%
   6726  1123    23358.8579    54    20301.9346    41652.9241    88057  105.17%
   6893  1252    27546.4684    54    20301.9346    41652.9241    89526  105.17%
   7023  1429    23560.6813    49    20301.9346    41652.9241    91551  105.17%
Elapsed time = 145.67 sec. (57954.62 ticks, tree = 13.29 MB, solutions = 3)
   7160  1257    22485.2969    10    20301.9346    41652.9241    89910  105.17%
   7321  1438    24589.2445    31    20301.9346    41652.9241    91307  105.17%
   7469  1472    22251.2976    91    20301.9346    41652.9241    91745  105.17%
   7615  1614    34450.5923   108    20301.9346    41652.9241    93318  105.17%
   7782  1665    34775.7082   120    20301.9346    41652.9241    93719  105.17%
   7823  1685    33684.3227   100    20301.9346    41652.9241    94056  105.17%
   7892  1329        cutoff          20301.9346    41652.9241    90578  105.17%
   7896  1479        cutoff          20301.9346    41652.9241    92156  105.17%
   7900  1479        cutoff          20301.9346    41652.9241    92158  105.17%
   7905  1480        cutoff          20301.9346    41652.9241    92161  105.17%
Elapsed time = 158.09 sec. (69192.33 ticks, tree = 21.88 MB, solutions = 3)
   7912  1483        cutoff          20301.9346    41652.9241    92167  105.17%
   7916  1483        cutoff          20301.9346    41652.9241    92172  105.17%
   7921  1484        cutoff          20301.9346    41652.9241    92176  105.17%

GUB cover cuts applied:  1
Clique cuts applied:  5
Cover cuts applied:  32
Implied bound cuts applied:  14
Flow cuts applied:  387
Mixed integer rounding cuts applied:  69
Zero-half cuts applied:  1
Gomory fractional cuts applied:  94

Root node processing (before b&c):
  Real time             =   28.87 sec. (11304.52 ticks)
Parallel b&c, 4 threads:
  Real time             =  129.23 sec. (64168.46 ticks)
  Sync time (average)   =    1.10 sec.
  Wait time (average)   =    0.05 sec.
                          ------------
Total (root+branch&cut) =  158.11 sec. (75472.98 ticks)

Solution pool: 3 solutions saved.

MIP - Deterministic time limit exceeded, integer feasible:  Objective =  2.0301934617e+04
Current MIP best bound =  4.1652924054e+04 (gap = 21351, 105.17%)
Solution time =  158.11 sec.  Iterations = 99394  Nodes = 7927 (2182)
Deterministic time = 75473.13 ticks  (477.35 ticks/sec)

CPLEX> Incumbent solution written to file 'C:\Users\llavi\Desktop\test919\logs\tmpwq2ox181.cplex.sol'.
CPLEX> Exporting results... 
